Grasp exp. instance_n_20_m_10_id_5.lp tipoLifted 0 szPool 5 nIteration 100 alpha 0.4 
Academic license - for non-commercial use only
Read LP format model from file ../input/instancesGenerated/instance_n_20_m_10_id_5.lp
Reading time = 0.00 seconds
: 10 rows, 20 columns, 106 nonzeros
Optimize a model with 10 rows, 20 columns and 106 nonzeros
Variable types: 0 continuous, 20 integer (20 binary)
Coefficient statistics:
  Matrix range     [1e+00, 1e+01]
  Objective range  [1e+00, 1e+01]
  Bounds range     [1e+00, 1e+00]
  RHS range        [2e+01, 4e+01]
Found heuristic solution: objective 45.0000000

Explored 0 nodes (0 simplex iterations) in 0.00 seconds
Thread count was 1 (of 8 available processors)

Solution count 1: 45 
No other solutions better than 0

Solution limit reached
Best objective 4.500000000000e+01, best bound -, gap -
C_1:	 1.00 x_2  = 0.958175 + 6.00 x_4  = 1.000000 + 6.00 x_5  = 0.894583 + 5.00 x_7  = 0.000000 + 6.00 x_11  = 0.537029 + 5.00 x_15  = 0.448893 + 10.00 x_17  = 0.000000 + 7.00 x_18  = 1.000000 + 5.00 x_20  = 0.041537 <= 25.00
C_2:	 8.00 x_1  = 0.000000 + 6.00 x_5  = 0.894583 + 9.00 x_8  = 0.000000 + 3.00 x_10  = 0.655087 + 2.00 x_11  = 0.537029 + 2.00 x_12  = 0.000000 + 1.00 x_13  = 1.000000 + 5.00 x_14  = 0.000000 + 1.00 x_15  = 0.448893 + 2.00 x_18  = 1.000000 + 8.00 x_20  = 0.041537 <= 23.00
C_3:	 1.00 x_2  = 0.958175 + 2.00 x_3  = 1.000000 + 2.00 x_4  = 1.000000 + 6.00 x_5  = 0.894583 + 5.00 x_8  = 0.000000 + 6.00 x_10  = 0.655087 + 5.00 x_12  = 0.000000 + 9.00 x_14  = 0.000000 + 9.00 x_15  = 0.448893 + 5.00 x_18  = 1.000000 + 4.00 x_19  = 0.925942 <= 27.00
C_4:	 6.00 x_1  = 0.000000 + 7.00 x_3  = 1.000000 + 7.00 x_4  = 1.000000 + 5.00 x_8  = 0.000000 + 4.00 x_11  = 0.537029 + 5.00 x_12  = 0.000000 + 6.00 x_14  = 0.000000 + 4.00 x_16  = 0.220305 + 10.00 x_19  = 0.925942 + 10.00 x_20  = 0.041537 <= 32.00
C_5:	 5.00 x_2  = 0.958175 + 3.00 x_3  = 1.000000 + 9.00 x_4  = 1.000000 + 6.00 x_5  = 0.894583 + 5.00 x_6  = 0.000000 + 2.00 x_8  = 0.000000 + 3.00 x_9  = 1.000000 + 10.00 x_10  = 0.655087 + 6.00 x_14  = 0.000000 + 9.00 x_17  = 0.000000 + 7.00 x_20  = 0.041537 <= 32.00
C_6:	 3.00 x_1  = 0.000000 + 10.00 x_2  = 0.958175 + 8.00 x_7  = 0.000000 + 2.00 x_9  = 1.000000 + 7.00 x_11  = 0.537029 + 4.00 x_16  = 0.220305 + 10.00 x_17  = 0.000000 + 9.00 x_18  = 1.000000 + 3.00 x_19  = 0.925942 <= 28.00
C_7:	 1.00 x_1  = 0.000000 + 8.00 x_2  = 0.958175 + 9.00 x_5  = 0.894583 + 10.00 x_6  = 0.000000 + 5.00 x_7  = 0.000000 + 8.00 x_9  = 1.000000 + 4.00 x_10  = 0.655087 + 3.00 x_13  = 1.000000 + 8.00 x_14  = 0.000000 + 9.00 x_16  = 0.220305 + 5.00 x_17  = 0.000000 + 5.00 x_18  = 1.000000 + 6.00 x_19  = 0.925942 + 3.00 x_20  = 0.041537 <= 42.00
C_8:	 8.00 x_1  = 0.000000 + 8.00 x_3  = 1.000000 + 4.00 x_6  = 0.000000 + 7.00 x_7  = 0.000000 + 2.00 x_9  = 1.000000 + 5.00 x_10  = 0.655087 + 10.00 x_11  = 0.537029 + 2.00 x_12  = 0.000000 + 10.00 x_13  = 1.000000 + 6.00 x_15  = 0.448893 + 3.00 x_16  = 0.220305 <= 32.00
C_9:	 1.00 x_2  = 0.958175 + 1.00 x_4  = 1.000000 + 5.00 x_5  = 0.894583 + 7.00 x_8  = 0.000000 + 4.00 x_10  = 0.655087 + 5.00 x_12  = 0.000000 + 2.00 x_13  = 1.000000 + 2.00 x_14  = 0.000000 + 2.00 x_15  = 0.448893 + 7.00 x_16  = 0.220305 + 6.00 x_18  = 1.000000 + 10.00 x_19  = 0.925942 + 6.00 x_20  = 0.041537 <= 29.00
C_10:	 4.00 x_1  = 0.000000 + 9.00 x_3  = 1.000000 + 5.00 x_8  = 0.000000 + 8.00 x_11  = 0.537029 + 1.00 x_13  = 1.000000 + 6.00 x_17  = 0.000000 + 4.00 x_19  = 0.925942 <= 18.00
Solution initial: 71.395330 
Number Constraints Used in Cover:10
GRASP Method!
Number cuts repeat: 0
value: 70.742836
Number Constraints Used in Cover:16
GRASP Method!
Number cuts repeat: 0
value: 70.742836
Number Constraints Used in Cover:22
GRASP Method!
Number cuts repeat: 0
value: 70.742836
Number Constraints Used in Cover:28
GRASP Method!
Number cuts repeat: 0
value: 70.742836
Number Constraints Used in Cover:33
GRASP Method!
Number cuts repeat: 0
value: 70.742836
Number Constraints Used in Cover:42
GRASP Method!
Number cuts repeat: 0
value: 70.573823
Number Constraints Used in Cover:48
GRASP Method!
Number cuts repeat: 0
value: 70.573823
Number Constraints Used in Cover:53
GRASP Method!
Number cuts repeat: 0
value: 70.573823
Number Constraints Used in Cover:57
GRASP Method!
Number cuts repeat: 0
value: 70.573823
Number Constraints Used in Cover:65
GRASP Method!
Number cuts repeat: 0
value: 70.573823
Number Constraints Used in Cover:71
GRASP Method!
Number cuts repeat: 0
value: 70.573823
Number Constraints Used in Cover:76
GRASP Method!
Number cuts repeat: 0
value: 70.573823
Number Constraints Used in Cover:80
GRASP Method!
Number cuts repeat: 0
value: 70.573823
Number Constraints Used in Cover:87
GRASP Method!
Number cuts repeat: 0
value: 70.573823
Number Constraints Used in Cover:91
GRASP Method!
Number cuts repeat: 0
value: 70.573823
Number Constraints Used in Cover:94
GRASP Method!
Number cuts repeat: 0
value: 70.573823
Number Constraints Used in Cover:96
GRASP Method!
Number cuts repeat: 0
value: 70.573823
Number Constraints Used in Cover:105
GRASP Method!
Number cuts repeat: 0
value: 70.573823
Number Constraints Used in Cover:108
GRASP Method!
Number cuts repeat: 0
value: 70.573823
Number Constraints Used in Cover:108
GRASP Method!
Number cuts repeat: 0
value: 70.573823
Number Constraints Used in Cover:109
GRASP Method!
Number cuts repeat: 0
value: 70.449740
Number Constraints Used in Cover:113
GRASP Method!
Number cuts repeat: 0
value: 70.449740
Number Constraints Used in Cover:117
GRASP Method!
Number cuts repeat: 0
value: 70.449740
Number Constraints Used in Cover:120
GRASP Method!
Number cuts repeat: 0
value: 70.084123
Number Constraints Used in Cover:121
GRASP Method!
Number cuts repeat: 0
value: 70.084123
Number Constraints Used in Cover:128
GRASP Method!
Number cuts repeat: 0
value: 70.084123
Number Constraints Used in Cover:138
GRASP Method!
Number cuts repeat: 0
value: 70.080982
Number Constraints Used in Cover:148
GRASP Method!
Number cuts repeat: 0
value: 69.171076
Number Constraints Used in Cover:156
GRASP Method!
Number cuts repeat: 0
value: 69.171076
Number Constraints Used in Cover:171
GRASP Method!
Number cuts repeat: 0
value: 69.171076
Number Constraints Used in Cover:179
GRASP Method!
Number cuts repeat: 0
value: 69.171076
Number Constraints Used in Cover:191
GRASP Method!
Number cuts repeat: 0
value: 69.171076
Number Constraints Used in Cover:199
GRASP Method!
Number cuts repeat: 0
value: 69.171076
Number Constraints Used in Cover:203
GRASP Method!
Number cuts repeat: 0
value: 69.171076
Number Constraints Used in Cover:210
GRASP Method!
Number cuts repeat: 0
value: 69.171076
Number Constraints Used in Cover:214
GRASP Method!
Number cuts repeat: 0
value: 69.171076
Number Constraints Used in Cover:222
GRASP Method!
Number cuts repeat: 0
value: 69.171076
Number Constraints Used in Cover:228
GRASP Method!
Number cuts repeat: 0
value: 69.171076
Number Constraints Used in Cover:238
GRASP Method!
Number cuts repeat: 0
value: 69.171076
Number Constraints Used in Cover:246
GRASP Method!
Number cuts repeat: 0
value: 69.171076
Number Constraints Used in Cover:252
GRASP Method!
Number cuts repeat: 0
value: 69.171076
Number Constraints Used in Cover:257
GRASP Method!
Number cuts repeat: 0
value: 69.171076
Number Constraints Used in Cover:264
GRASP Method!
Number cuts repeat: 0
value: 69.171076
Number Constraints Used in Cover:268
GRASP Method!
Number cuts repeat: 0
value: 69.171076
Number Constraints Used in Cover:270
GRASP Method!
Number cuts repeat: 0
value: 69.171076
Number Constraints Used in Cover:274
GRASP Method!
Number cuts repeat: 0
value: 69.171076
Number Constraints Used in Cover:277
GRASP Method!
Number cuts repeat: 0
value: 69.171076
Number Constraints Used in Cover:277
GRASP Method!
Number cuts repeat: 0
value: 69.171076
Number Constraints Used in Cover:282
GRASP Method!
Number cuts repeat: 0
value: 69.171076
Number Constraints Used in Cover:284
GRASP Method!
Number cuts repeat: 0
value: 69.171076
Number Constraints Used in Cover:288
GRASP Method!
Number cuts repeat: 0
value: 69.171076
Number Constraints Used in Cover:288
GRASP Method!
Number cuts repeat: 0
value: 69.171076
Number Constraints Used in Cover:292
GRASP Method!
Number cuts repeat: 0
value: 69.171076
Number Constraints Used in Cover:292
GRASP Method!
Number cuts repeat: 0
value: 69.171076
Number Constraints Used in Cover:295
GRASP Method!
Number cuts repeat: 0
value: 69.171076
Number Constraints Used in Cover:296
GRASP Method!
Number cuts repeat: 0
value: 69.171076
Number Constraints Used in Cover:302
GRASP Method!
Number cuts repeat: 0
value: 69.171076
Number Constraints Used in Cover:306
GRASP Method!
Number cuts repeat: 0
value: 69.171076
Number Constraints Used in Cover:311
GRASP Method!
Number cuts repeat: 0
value: 69.171076
Number Constraints Used in Cover:313
GRASP Method!
Number cuts repeat: 0
value: 69.171076
Number Constraints Used in Cover:315
GRASP Method!
Number cuts repeat: 0
value: 69.171076
Number Constraints Used in Cover:323
GRASP Method!
Number cuts repeat: 0
value: 69.171076
Number Constraints Used in Cover:329
GRASP Method!
Number cuts repeat: 0
value: 69.171076
Number Constraints Used in Cover:332
GRASP Method!
Number cuts repeat: 0
value: 69.171076
Number Constraints Used in Cover:333
GRASP Method!
Number cuts repeat: 0
value: 69.171076
Number Constraints Used in Cover:336
GRASP Method!
Number cuts repeat: 0
value: 69.171076
Number Constraints Used in Cover:341
GRASP Method!
Number cuts repeat: 0
value: 69.171076
Number Constraints Used in Cover:343
GRASP Method!
Number cuts repeat: 0
value: 69.171076
Number Constraints Used in Cover:347
GRASP Method!
Number cuts repeat: 0
value: 69.171076
Number Constraints Used in Cover:347
GRASP Method!
Number cuts repeat: 0
value: 69.171076
Number Constraints Used in Cover:350
GRASP Method!
Number cuts repeat: 0
value: 69.171076
Number Constraints Used in Cover:352
GRASP Method!
Number cuts repeat: 0
value: 69.171076
Number Constraints Used in Cover:354
GRASP Method!
Number cuts repeat: 0
value: 69.171076
Number Constraints Used in Cover:356
GRASP Method!
Number cuts repeat: 0
value: 69.171076
Number Constraints Used in Cover:357
GRASP Method!
Number cuts repeat: 0
value: 69.171076
Number Constraints Used in Cover:360
GRASP Method!
Number cuts repeat: 0
value: 69.171076
Number Constraints Used in Cover:361
GRASP Method!
Number cuts repeat: 0
value: 69.171076
Number Constraints Used in Cover:362
GRASP Method!
Number cuts repeat: 0
value: 69.171076
Number Constraints Used in Cover:363
GRASP Method!
Number cuts repeat: 0
value: 69.171076
Number Constraints Used in Cover:363
GRASP Method!
Number cuts repeat: 0
value: 69.171076
Number Constraints Used in Cover:364
GRASP Method!
Number cuts repeat: 0
value: 69.171076
Number Constraints Used in Cover:367
GRASP Method!
Number cuts repeat: 0
value: 69.171076
Number Constraints Used in Cover:367
GRASP Method!
Number cuts repeat: 0
value: 69.171076
Number Constraints Used in Cover:367
GRASP Method!
Number cuts repeat: 0
value: 69.171076
Number Constraints Used in Cover:369
GRASP Method!
Number cuts repeat: 0
value: 69.171076
Number Constraints Used in Cover:369
GRASP Method!
Number cuts repeat: 0
value: 69.171076
Number Constraints Used in Cover:369
GRASP Method!
Number cuts repeat: 0
value: 69.171076
Number Constraints Used in Cover:370
GRASP Method!
Number cuts repeat: 0
value: 69.171076
Number Constraints Used in Cover:373
GRASP Method!
Number cuts repeat: 0
value: 69.171076
Number Constraints Used in Cover:375
GRASP Method!
Number cuts repeat: 0
value: 69.171076
Number Constraints Used in Cover:378
GRASP Method!
Number cuts repeat: 0
value: 69.171076
Number Constraints Used in Cover:378
GRASP Method!
Number cuts repeat: 0
value: 69.171076
Number Constraints Used in Cover:378
GRASP Method!
Number cuts repeat: 0
value: 69.171076
Number Constraints Used in Cover:378
GRASP Method!
Number cuts repeat: 0
value: 69.171076
Number Constraints Used in Cover:378
GRASP Method!
Number cuts repeat: 0
value: 69.171076
Number Constraints Used in Cover:378
GRASP Method!
Number cuts repeat: 0
value: 69.171076
Number Constraints Used in Cover:379
GRASP Method!
Number cuts repeat: 0
value: 69.171076
Number Constraints Used in Cover:384
GRASP Method!
Number cuts repeat: 0
value: 69.171076
Number Constraints Used in Cover:386
GRASP Method!
Number cuts repeat: 0
value: 69.171076
Number Constraints Used in Cover:388
GRASP Method!
Number cuts repeat: 0
value: 69.171076
Number Constraints Used in Cover:388
GRASP Method!
Number cuts repeat: 0
value: 69.171076
Number Constraints Used in Cover:388
GRASP Method!
Number cuts repeat: 0
value: 69.171076
Number Constraints Used in Cover:390
GRASP Method!
Number cuts repeat: 0
value: 69.171076
Number Constraints Used in Cover:391
GRASP Method!
Number cuts repeat: 0
value: 69.171076
Number Constraints Used in Cover:393
GRASP Method!
Number cuts repeat: 0
value: 69.171076
Number Constraints Used in Cover:393
GRASP Method!
Number cuts repeat: 0
value: 69.171076
Number Constraints Used in Cover:395
GRASP Method!
Number cuts repeat: 0
value: 69.171076
Number Constraints Used in Cover:396
GRASP Method!
Number cuts repeat: 0
value: 69.171076
Number Constraints Used in Cover:397
GRASP Method!
Number cuts repeat: 0
value: 69.171076
Number Constraints Used in Cover:397
GRASP Method!
Number cuts repeat: 0
value: 69.171076
Number Constraints Used in Cover:398
GRASP Method!
Number cuts repeat: 0
value: 69.171076
Number Constraints Used in Cover:399
GRASP Method!
Number cuts repeat: 0
value: 69.171076
Number Constraints Used in Cover:400
GRASP Method!
Number cuts repeat: 0
value: 69.171076
Number Constraints Used in Cover:402
GRASP Method!
Number cuts repeat: 0
value: 69.171076
Number Constraints Used in Cover:402
GRASP Method!
Number cuts repeat: 0
value: 69.171076
Number Constraints Used in Cover:403
GRASP Method!
Number cuts repeat: 0
value: 69.171076
Number Constraints Used in Cover:405
GRASP Method!
Number cuts repeat: 0
value: 69.171076
Number Constraints Used in Cover:410
GRASP Method!
Number cuts repeat: 0
value: 69.171076
Number Constraints Used in Cover:417
GRASP Method!
Number cuts repeat: 0
value: 69.171076
Number Constraints Used in Cover:421
GRASP Method!
Number cuts repeat: 0
value: 69.171076
Number Constraints Used in Cover:422
GRASP Method!
Number cuts repeat: 0
value: 69.171076
Number Constraints Used in Cover:423
GRASP Method!
Number cuts repeat: 0
value: 69.171076
Number Constraints Used in Cover:428
GRASP Method!
Number cuts repeat: 0
value: 69.171076
Number Constraints Used in Cover:436
GRASP Method!
Number cuts repeat: 0
value: 69.171076
Number Constraints Used in Cover:438
GRASP Method!
Number cuts repeat: 0
value: 69.171076
Number Constraints Used in Cover:441
GRASP Method!
Number cuts repeat: 0
value: 69.171076
Number Constraints Used in Cover:443
GRASP Method!
Number cuts repeat: 0
value: 69.171076
Number Constraints Used in Cover:448
GRASP Method!
Number cuts repeat: 0
value: 69.171076
Number Constraints Used in Cover:452
GRASP Method!
Number cuts repeat: 0
value: 69.171076
Number Constraints Used in Cover:456
GRASP Method!
Number cuts repeat: 0
value: 69.171076
Number Constraints Used in Cover:467
GRASP Method!
Number cuts repeat: 0
value: 69.171076
Number Constraints Used in Cover:468
GRASP Method!
Number cuts repeat: 0
value: 69.171076
Number Constraints Used in Cover:474
GRASP Method!
Number cuts repeat: 0
value: 69.171076
Number Constraints Used in Cover:481
GRASP Method!
Number cuts repeat: 0
value: 69.171076
Number Constraints Used in Cover:485
GRASP Method!
Number cuts repeat: 0
value: 69.171076
Number Constraints Used in Cover:486
GRASP Method!
Number cuts repeat: 0
value: 69.171076
Number Constraints Used in Cover:489
GRASP Method!
Number cuts repeat: 0
value: 69.171076
Number Constraints Used in Cover:489
GRASP Method!
Number cuts repeat: 0
value: 69.171076
Number Constraints Used in Cover:489
GRASP Method!
Number cuts repeat: 0
value: 69.171076
Number Constraints Used in Cover:490
GRASP Method!
Number cuts repeat: 0
value: 69.171076
Number Constraints Used in Cover:493
GRASP Method!
Number cuts repeat: 0
value: 69.171076
Number Constraints Used in Cover:496
GRASP Method!
Number cuts repeat: 0
value: 69.171076
Number Constraints Used in Cover:496
GRASP Method!
Number cuts repeat: 0
value: 69.171076
Number Constraints Used in Cover:498
GRASP Method!
Number cuts repeat: 0
value: 69.171076
Number Constraints Used in Cover:498
GRASP Method!
Number cuts repeat: 0
value: 69.171076
Number Constraints Used in Cover:498
GRASP Method!
Number cuts repeat: 0
value: 69.171076
Number Constraints Used in Cover:498
GRASP Method!
Number cuts repeat: 0
value: 69.171076
Number Constraints Used in Cover:498
GRASP Method!
Number cuts repeat: 0
value: 69.171076
Number Constraints Used in Cover:498
GRASP Method!
Number cuts repeat: 0
value: 69.171076
Number Constraints Used in Cover:501
GRASP Method!
Number cuts repeat: 0
value: 69.171076
Number Constraints Used in Cover:501
GRASP Method!
Number cuts repeat: 0
value: 69.171076
Number Constraints Used in Cover:502
GRASP Method!
Number cuts repeat: 0
value: 69.171076
Number Constraints Used in Cover:502
GRASP Method!
Number cuts repeat: 0
value: 69.171076
Number Constraints Used in Cover:502
GRASP Method!
Number cuts repeat: 0
value: 69.171076
Number Constraints Used in Cover:502
GRASP Method!
Number cuts repeat: 0
value: 69.171076
Number Constraints Used in Cover:505
GRASP Method!
Number cuts repeat: 0
value: 69.171076
Number Constraints Used in Cover:505
GRASP Method!
Number cuts repeat: 0
value: 69.171076
Number Constraints Used in Cover:506
GRASP Method!
Number cuts repeat: 0
value: 69.171076
Number Constraints Used in Cover:508
GRASP Method!
Number cuts repeat: 0
value: 69.171076
Number Constraints Used in Cover:508
GRASP Method!
Number cuts repeat: 0
value: 69.171076
Number Constraints Used in Cover:511
GRASP Method!
Number cuts repeat: 0
value: 69.171076
Number Constraints Used in Cover:512
GRASP Method!
Number cuts repeat: 0
value: 69.171076
Number Constraints Used in Cover:513
GRASP Method!
Number cuts repeat: 0
value: 69.171076
Number Constraints Used in Cover:513
GRASP Method!
Number cuts repeat: 0
value: 69.171076
Number Constraints Used in Cover:513
GRASP Method!
Number cuts repeat: 0
value: 69.171076
Number Constraints Used in Cover:513
GRASP Method!
Number cuts repeat: 0
value: 69.171076
Number Constraints Used in Cover:513
GRASP Method!
Number cuts repeat: 0
value: 69.171076
Number Constraints Used in Cover:515
GRASP Method!
Number cuts repeat: 0
value: 69.171076
Number Constraints Used in Cover:516
GRASP Method!
Number cuts repeat: 0
value: 69.171076
Number Constraints Used in Cover:517
GRASP Method!
Number cuts repeat: 0
value: 69.171076
Number Constraints Used in Cover:518
GRASP Method!
Number cuts repeat: 0
value: 69.171076
Number Constraints Used in Cover:518
GRASP Method!
Number cuts repeat: 0
value: 69.171076
Number Constraints Used in Cover:519
GRASP Method!
Number cuts repeat: 0
value: 69.171076
Number Constraints Used in Cover:521
GRASP Method!
Number cuts repeat: 0
value: 69.171076
Number Constraints Used in Cover:524
GRASP Method!
Number cuts repeat: 0
value: 69.171076
Number Constraints Used in Cover:525
GRASP Method!
Number cuts repeat: 0
value: 69.171076
Number Constraints Used in Cover:525
GRASP Method!
Number cuts repeat: 0
value: 69.171076
Number Constraints Used in Cover:525
GRASP Method!
Number cuts repeat: 0
value: 69.171076
Number Constraints Used in Cover:526
GRASP Method!
Number cuts repeat: 0
value: 69.171076
Number Constraints Used in Cover:526
GRASP Method!
Number cuts repeat: 0
value: 69.171076
Number Constraints Used in Cover:526
GRASP Method!
Number cuts repeat: 0
value: 69.171076
Number Constraints Used in Cover:527
GRASP Method!
Number cuts repeat: 0
value: 69.171076
Number Constraints Used in Cover:527
GRASP Method!
Number cuts repeat: 0
value: 69.171076
Number Constraints Used in Cover:527
GRASP Method!
Number cuts repeat: 0
value: 69.171076
Number Constraints Used in Cover:527
GRASP Method!
Number cuts repeat: 0
value: 69.171076
Number Constraints Used in Cover:527
GRASP Method!
Number cuts repeat: 0
value: 69.171076
Number Constraints Used in Cover:528
GRASP Method!
Number cuts repeat: 0
value: 69.171076
Number Constraints Used in Cover:530
GRASP Method!
Number cuts repeat: 0
value: 69.171076
Number Constraints Used in Cover:530
GRASP Method!
Number cuts repeat: 0
value: 69.171076
Number Constraints Used in Cover:531
GRASP Method!
Number cuts repeat: 0
value: 69.171076
Number Constraints Used in Cover:532
GRASP Method!
Number cuts repeat: 0
value: 69.171076
Number Constraints Used in Cover:533
GRASP Method!
Number cuts repeat: 0
value: 69.171076
Number Constraints Used in Cover:534
GRASP Method!
Number cuts repeat: 0
value: 69.171076
Number Constraints Used in Cover:534
GRASP Method!
Number cuts repeat: 0
value: 69.171076
Number Constraints Used in Cover:534
GRASP Method!
Number cuts repeat: 0
value: 69.171076
Number Constraints Used in Cover:534
GRASP Method!
Number cuts repeat: 0
value: 69.171076
Number Constraints Used in Cover:534
GRASP Method!
Number cuts repeat: 0
value: 69.171076
Number Constraints Used in Cover:535
GRASP Method!
Number cuts repeat: 0
value: 69.171076
Number Constraints Used in Cover:535
GRASP Method!
Number cuts repeat: 0
value: 69.171076
Number Cuts Final: 528
